100
150
99
99
98
98
97
97
96
96
96
96
95
94
93
92
91
89
87
87
87
86
85
84
84
83
83
83
82
81
80
79
79
79
77
77
76
74
74
74
73
72
72
71
71
69
69
69
66
65
64
64
64
63
62
61
60
59
57
57
57
56
56
55
54
53
52
52
51
51
49
47
47
46
46
46
46
46
46
44
43
43
43
41
40
40
39
39
38
36
36
35
34
34
33
32
32
31
31
30
30
30
